(set-info :smt-lib-version 2.6)
(set-logic QF_FP)
(set-option :produce-models true)
(set-info :source |Random FP created by PyMPF|)
(set-info :license |https://www.gnu.org/licenses/gpl-3.0.html|)
(set-info :category random)
(set-info :status sat)
(declare-const x Float32)
(assert (= x (fp #b1 #b11111110 #b11111111111111111111111)))
;; x should be Float32(0xFF7FFFFF [Rational(-340282346638528859811704183484516925440), -340282346638528859811704183484516925440.000000])

(declare-const y Float32)
(assert (= y ((_ to_fp 8 24) #x00311CD7)))
;; y should be Float32(0x00311CD7 [Rational(3218647, 713623846352979940529142984724747568191373312), 0.000000])

(declare-const z Float32)
(assert (= z ((_ to_fp 8 24) #xFB05FFCE)))
;; z should be Float32(0xFB05FFCE [Rational(-695763817635541189006206830917976064), -695763817635541189006206830917976064.000000])

(declare-const result Float32)
(assert (= result (fp.fma RNA x y z)))
(assert (= result (fp #b1 #b11110110 #b00001011111111111001110)))
(check-sat)
(exit)
